(declare-const BAV1 Bool)
(declare-const BAV2 Bool)
(declare-const BAV3 Bool)
(declare-const BAV4 Bool)
(declare-const GEN4 Int)
(declare-const GEN3 Int)
(declare-const GEN2 Int)
(declare-const GEN1 Int)
(declare-fun h () (Array Int (Array Int Real)))
(assert (forall ((x1 Int)(x2 Int)(aar1 (Array Int (Array Int Real)))(aar2 (Array Int (Array Int Real)))) (or (not (= (select (select aar1 x1) x2) (select (select aar1 x2) x1))) (not (= (select (select aar2 x1) x2) (select (select aar2 x2) x1))))))
(assert (not (= (select (select h GEN1) GEN2) (select (select h GEN3) GEN4))))
(assert (= BAV1 (forall ((x1 Int)(x2 Int)(aar1 (Array Int (Array Int Real)))(aar2 (Array Int (Array Int Real)))) (or (not (= (select (select aar1 x1) x2) (select (select aar1 x2) x1))) (not (= (select (select aar2 x1) x2) (select (select aar2 x2) x1)))))))
(assert (= BAV2 (forall ((x1 Int)(x2 Int)(aar1 (Array Int (Array Int Real)))(aar2 (Array Int (Array Int Real)))) (= (select (select aar1 x1) x2) (select (select aar1 x2) x1)))))
(assert (= BAV3 (forall ((x1 Int)(x2 Int)(aar1 (Array Int (Array Int Real)))(aar2 (Array Int (Array Int Real)))) (= (select (select aar2 x1) x2) (select (select aar2 x2) x1)))))
(assert (= BAV4 (= (select (select h GEN1) GEN2) (select (select h GEN3) GEN4))))
(check-sat)
(get-model)
(exit)